\Problem name: compact

Minimize
OBJROW: C
Subject To
ord(0,1):  x(0,1) - x(0,2) >= 4
ord(0,2):  x(0,0) - x(0,1) >= 4
ord(1,1):  - x(1,0) + x(1,1) >= 10
ord(1,2):  - x(1,1) + x(1,2) >= 3
ord(2,1):  x(2,0) - x(2,1) >= 4
ord(2,2):  - x(2,0) + x(2,2) >= 1
triangle2(0,1,0):  y(0,1,0) + y(1,0,0) = 1
triangle2(0,1,1):  y(0,1,1) + y(1,0,1) = 1
triangle2(0,1,2):  y(0,1,2) + y(1,0,2) = 1
triangle2(0,2,0):  y(0,2,0) + y(2,0,0) = 1
triangle2(0,2,1):  y(0,2,1) + y(2,0,1) = 1
triangle2(0,2,2):  y(0,2,2) + y(2,0,2) = 1
triangle2(1,2,0):  y(1,2,0) + y(2,1,0) = 1
triangle2(1,2,1):  y(1,2,1) + y(2,1,1) = 1
triangle2(1,2,2):  y(1,2,2) + y(2,1,2) = 1
MCLinV(0,1,0):  x(0,0) - v(0,1,0) - x(1,0) = 10
MCLinV(1,0,0):  - x(0,0) - v(1,0,0) + x(1,0) = 1
MCLin1(0,1,0):  u(0,1,0) >= -0
MCLin2(0,1,0):  -22 y(1,0,0) - u(0,1,0) <= -0
MCLin3(0,1,0):  27 y(1,0,0) + v(0,1,0) - u(0,1,0) <= 27
MCLin4(0,1,0):  27 y(1,0,0) - u(0,1,0) >= -0
MCLin5(0,1,0):  -22 y(1,0,0) + v(0,1,0) - u(0,1,0) >= -22
MCLin6(1,0,0):  u(1,0,0) >= -0
MCLin7(1,0,0):  -38 y(0,1,0) - u(1,0,0) <= -0
MCLin8(1,0,0):  11 y(0,1,0) + v(1,0,0) - u(1,0,0) <= 11
MCLin9(1,0,0):  11 y(0,1,0) - u(1,0,0) >= -0
MCLin10(1,0,0):  -38 y(0,1,0) + v(1,0,0) - u(1,0,0) >= -38
MCLinV(0,1,1):  x(0,1) - v(0,1,1) - x(1,1) = 3
MCLinV(1,0,1):  - x(0,1) - v(1,0,1) + x(1,1) = 4
MCLin1(0,1,1):  u(0,1,1) >= -0
MCLin2(0,1,1):  -29 y(1,0,1) - u(0,1,1) <= -0
MCLin3(0,1,1):  20 y(1,0,1) + v(0,1,1) - u(0,1,1) <= 20
MCLin4(0,1,1):  20 y(1,0,1) - u(0,1,1) >= -0
MCLin5(0,1,1):  -29 y(1,0,1) + v(0,1,1) - u(0,1,1) >= -29
MCLin6(1,0,1):  u(1,0,1) >= -0
MCLin7(1,0,1):  -27 y(0,1,1) - u(1,0,1) <= -0
MCLin8(1,0,1):  22 y(0,1,1) + v(1,0,1) - u(1,0,1) <= 22
MCLin9(1,0,1):  22 y(0,1,1) - u(1,0,1) >= -0
MCLin10(1,0,1):  -27 y(0,1,1) + v(1,0,1) - u(1,0,1) >= -27
MCLinV(0,1,2):  x(0,2) - v(0,1,2) - x(1,2) = 5
MCLinV(1,0,2):  - x(0,2) - v(1,0,2) + x(1,2) = 4
MCLin1(0,1,2):  u(0,1,2) >= -0
MCLin2(0,1,2):  -38 y(1,0,2) - u(0,1,2) <= -0
MCLin3(0,1,2):  11 y(1,0,2) + v(0,1,2) - u(0,1,2) <= 11
MCLin4(0,1,2):  11 y(1,0,2) - u(0,1,2) >= -0
MCLin5(0,1,2):  -38 y(1,0,2) + v(0,1,2) - u(0,1,2) >= -38
MCLin6(1,0,2):  u(1,0,2) >= -0
MCLin7(1,0,2):  -20 y(0,1,2) - u(1,0,2) <= -0
MCLin8(1,0,2):  29 y(0,1,2) + v(1,0,2) - u(1,0,2) <= 29
MCLin9(1,0,2):  29 y(0,1,2) - u(1,0,2) >= -0
MCLin10(1,0,2):  -20 y(0,1,2) + v(1,0,2) - u(1,0,2) >= -20
MCLinV(0,2,0):  x(0,0) - v(0,2,0) - x(2,0) = 1
MCLinV(2,0,0):  - x(0,0) - v(2,0,0) + x(2,0) = 1
MCLin1(0,2,0):  u(0,2,0) >= -0
MCLin2(0,2,0):  -24 y(2,0,0) - u(0,2,0) <= -0
MCLin3(0,2,0):  32 y(2,0,0) + v(0,2,0) - u(0,2,0) <= 32
MCLin4(0,2,0):  32 y(2,0,0) - u(0,2,0) >= -0
MCLin5(0,2,0):  -24 y(2,0,0) + v(0,2,0) - u(0,2,0) >= -24
MCLin6(2,0,0):  u(2,0,0) >= -0
MCLin7(2,0,0):  -34 y(0,2,0) - u(2,0,0) <= -0
MCLin8(2,0,0):  22 y(0,2,0) + v(2,0,0) - u(2,0,0) <= 22
MCLin9(2,0,0):  22 y(0,2,0) - u(2,0,0) >= -0
MCLin10(2,0,0):  -34 y(0,2,0) + v(2,0,0) - u(2,0,0) >= -34
MCLinV(0,2,1):  x(0,1) - v(0,2,1) - x(2,1) = 4
MCLinV(2,0,1):  - x(0,1) - v(2,0,1) + x(2,1) = 4
MCLin1(0,2,1):  u(0,2,1) >= -0
MCLin2(0,2,1):  -27 y(2,0,1) - u(0,2,1) <= -0
MCLin3(0,2,1):  29 y(2,0,1) + v(0,2,1) - u(0,2,1) <= 29
MCLin4(0,2,1):  29 y(2,0,1) - u(0,2,1) >= -0
MCLin5(0,2,1):  -27 y(2,0,1) + v(0,2,1) - u(0,2,1) >= -27
MCLin6(2,0,1):  u(2,0,1) >= -0
MCLin7(2,0,1):  -37 y(0,2,1) - u(2,0,1) <= -0
MCLin8(2,0,1):  19 y(0,2,1) + v(2,0,1) - u(2,0,1) <= 19
MCLin9(2,0,1):  19 y(0,2,1) - u(2,0,1) >= -0
MCLin10(2,0,1):  -37 y(0,2,1) + v(2,0,1) - u(2,0,1) >= -37
MCLinV(0,2,2):  x(0,2) - v(0,2,2) - x(2,2) = 6
MCLinV(2,0,2):  - x(0,2) - v(2,0,2) + x(2,2) = 4
MCLin1(0,2,2):  u(0,2,2) >= -0
MCLin2(0,2,2):  -38 y(2,0,2) - u(0,2,2) <= -0
MCLin3(0,2,2):  18 y(2,0,2) + v(0,2,2) - u(0,2,2) <= 18
MCLin4(0,2,2):  18 y(2,0,2) - u(0,2,2) >= -0
MCLin5(0,2,2):  -38 y(2,0,2) + v(0,2,2) - u(0,2,2) >= -38
MCLin6(2,0,2):  u(2,0,2) >= -0
MCLin7(2,0,2):  -28 y(0,2,2) - u(2,0,2) <= -0
MCLin8(2,0,2):  28 y(0,2,2) + v(2,0,2) - u(2,0,2) <= 28
MCLin9(2,0,2):  28 y(0,2,2) - u(2,0,2) >= -0
MCLin10(2,0,2):  -28 y(0,2,2) + v(2,0,2) - u(2,0,2) >= -28
MCLinV(1,2,0):  x(1,0) - v(1,2,0) - x(2,0) = 1
MCLinV(2,1,0):  - x(1,0) - v(2,1,0) + x(2,0) = 10
MCLin1(1,2,0):  u(1,2,0) >= -0
MCLin2(1,2,0):  -32 y(2,1,0) - u(1,2,0) <= -0
MCLin3(1,2,0):  15 y(2,1,0) + v(1,2,0) - u(1,2,0) <= 15
MCLin4(1,2,0):  15 y(2,1,0) - u(1,2,0) >= -0
MCLin5(1,2,0):  -32 y(2,1,0) + v(1,2,0) - u(1,2,0) >= -32
MCLin6(2,1,0):  u(2,1,0) >= -0
MCLin7(2,1,0):  -26 y(1,2,0) - u(2,1,0) <= -0
MCLin8(2,1,0):  21 y(1,2,0) + v(2,1,0) - u(2,1,0) <= 21
MCLin9(2,1,0):  21 y(1,2,0) - u(2,1,0) >= -0
MCLin10(2,1,0):  -26 y(1,2,0) + v(2,1,0) - u(2,1,0) >= -26
MCLinV(1,2,1):  x(1,1) - v(1,2,1) - x(2,1) = 4
MCLinV(2,1,1):  - x(1,1) - v(2,1,1) + x(2,1) = 3
MCLin1(1,2,1):  u(1,2,1) >= -0
MCLin2(1,2,1):  -21 y(2,1,1) - u(1,2,1) <= -0
MCLin3(1,2,1):  26 y(2,1,1) + v(1,2,1) - u(1,2,1) <= 26
MCLin4(1,2,1):  26 y(2,1,1) - u(1,2,1) >= -0
MCLin5(1,2,1):  -21 y(2,1,1) + v(1,2,1) - u(1,2,1) >= -21
MCLin6(2,1,1):  u(2,1,1) >= -0
MCLin7(2,1,1):  -33 y(1,2,1) - u(2,1,1) <= -0
MCLin8(2,1,1):  14 y(1,2,1) + v(2,1,1) - u(2,1,1) <= 14
MCLin9(2,1,1):  14 y(1,2,1) - u(2,1,1) >= -0
MCLin10(2,1,1):  -33 y(1,2,1) + v(2,1,1) - u(2,1,1) >= -33
MCLinV(1,2,2):  x(1,2) - v(1,2,2) - x(2,2) = 6
MCLinV(2,1,2):  - x(1,2) - v(2,1,2) + x(2,2) = 5
MCLin1(1,2,2):  u(1,2,2) >= -0
MCLin2(1,2,2):  -25 y(2,1,2) - u(1,2,2) <= -0
MCLin3(1,2,2):  22 y(2,1,2) + v(1,2,2) - u(1,2,2) <= 22
MCLin4(1,2,2):  22 y(2,1,2) - u(1,2,2) >= -0
MCLin5(1,2,2):  -25 y(2,1,2) + v(1,2,2) - u(1,2,2) >= -25
MCLin6(2,1,2):  u(2,1,2) >= -0
MCLin7(2,1,2):  -33 y(1,2,2) - u(2,1,2) <= -0
MCLin8(2,1,2):  14 y(1,2,2) + v(2,1,2) - u(2,1,2) <= 14
MCLin9(2,1,2):  14 y(1,2,2) - u(2,1,2) >= -0
MCLin10(2,1,2):  -33 y(1,2,2) + v(2,1,2) - u(2,1,2) >= -33
makespan(0):  C - x(0,0) >= 1
makespan(1):  C - x(1,2) >= 5
makespan(2):  C - x(2,2) >= 6
cut_clique_0(012,0):  0.12000 x(1,0) + 0.10000 x(2,0) >= 1
cut_clique_1(012,0):  0.04762 x(0,0) + 0.04762 x(1,0) + 0.04762 x(2,0) >= 1
cut_clique_0:  0.04937 x(1,0) + 0.05063 x(1,2) + 0.01899 x(2,2) >= 1
Bounds
 0 <= C <= 38
 8 <= x(0,0) <= 37
 0 <= y(0,1,0) <= 1
 0 <= y(1,0,0) <= 1
 -22 <= v(0,1,0) <= 27
 -38 <= v(1,0,0) <= 11
 -380 <= u(0,1,0)
 -380 <= u(1,0,0)
 0 <= y(0,2,0) <= 1
 0 <= y(2,0,0) <= 1
 -24 <= v(0,2,0) <= 32
 -34 <= v(2,0,0) <= 22
 -380 <= u(0,2,0)
 -380 <= u(2,0,0)
 0 <= x(1,0) <= 20
 0 <= y(1,2,0) <= 1
 0 <= y(2,1,0) <= 1
 -32 <= v(1,2,0) <= 15
 -26 <= v(2,1,0) <= 21
 -380 <= u(1,2,0)
 -380 <= u(2,1,0)
 4 <= x(2,0) <= 31
 4 <= x(0,1) <= 33
 0 <= y(0,1,1) <= 1
 0 <= y(1,0,1) <= 1
 -29 <= v(0,1,1) <= 20
 -27 <= v(1,0,1) <= 22
 -380 <= u(0,1,1)
 -380 <= u(1,0,1)
 0 <= y(0,2,1) <= 1
 0 <= y(2,0,1) <= 1
 -27 <= v(0,2,1) <= 29
 -37 <= v(2,0,1) <= 19
 -380 <= u(0,2,1)
 -380 <= u(2,0,1)
 10 <= x(1,1) <= 30
 0 <= y(1,2,1) <= 1
 0 <= y(2,1,1) <= 1
 -21 <= v(1,2,1) <= 26
 -33 <= v(2,1,1) <= 14
 -380 <= u(1,2,1)
 -380 <= u(2,1,1)
 0 <= x(2,1) <= 27
 0 <= x(0,2) <= 29
 0 <= y(0,1,2) <= 1
 0 <= y(1,0,2) <= 1
 -38 <= v(0,1,2) <= 11
 -20 <= v(1,0,2) <= 29
 -380 <= u(0,1,2)
 -380 <= u(1,0,2)
 0 <= y(0,2,2) <= 1
 0 <= y(2,0,2) <= 1
 -38 <= v(0,2,2) <= 18
 -28 <= v(2,0,2) <= 28
 -380 <= u(0,2,2)
 -380 <= u(2,0,2)
 13 <= x(1,2) <= 33
 0 <= y(1,2,2) <= 1
 0 <= y(2,1,2) <= 1
 -25 <= v(1,2,2) <= 22
 -33 <= v(2,1,2) <= 14
 -380 <= u(1,2,2)
 -380 <= u(2,1,2)
 5 <= x(2,2) <= 32
End
